
(set-logic HORN)
(define-fun zero_76 () Int 0)
(define-fun succ_74 ((x Int)) Int (+ x 1))
(declare-datatypes ((Bool_204 0)) (((false_204) (true_204))))
(declare-fun diseqBool_91 (Bool_204 Bool_204) Bool)
(declare-fun isfalse_91 (Bool_204) Bool)
(declare-fun istrue_91 (Bool_204) Bool)
(assert (isfalse_91 false_204))
(assert (istrue_91 true_204))
(assert (diseqBool_91 false_204 true_204))
(assert (diseqBool_91 true_204 false_204))
(declare-fun and_204 (Bool_204 Bool_204 Bool_204) Bool)
(declare-fun or_208 (Bool_204 Bool_204 Bool_204) Bool)
(declare-fun hence_204 (Bool_204 Bool_204 Bool_204) Bool)
(declare-fun not_207 (Bool_204 Bool_204) Bool)
(assert (and_204 false_204 false_204 false_204))
(assert (and_204 false_204 true_204 false_204))
(assert (and_204 false_204 false_204 true_204))
(assert (and_204 true_204 true_204 true_204))
(assert (or_208 false_204 false_204 false_204))
(assert (or_208 true_204 true_204 false_204))
(assert (or_208 true_204 false_204 true_204))
(assert (or_208 true_204 true_204 true_204))
(assert (hence_204 true_204 false_204 false_204))
(assert (hence_204 false_204 true_204 false_204))
(assert (hence_204 true_204 false_204 true_204))
(assert (hence_204 true_204 true_204 true_204))
(assert (not_207 true_204 false_204))
(assert (not_207 false_204 true_204))
(declare-fun diseqInt (Int Int) Bool)
(declare-fun p_215 (Int Int) Bool)
(declare-fun iszero_74 (Int) Bool)
(declare-fun issucc_74 (Int) Bool)
(assert (forall ((x_33600 Int))
	(p_215 x_33600 (succ_74 x_33600))))
(assert (iszero_74 zero_76))
(assert (forall ((x_33602 Int))
	(issucc_74 (succ_74 x_33602))))
(assert (forall ((x_33603 Int))
	(diseqInt zero_76 (succ_74 x_33603))))
(assert (forall ((x_33604 Int))
	(diseqInt (succ_74 x_33604) zero_76)))
(assert (forall ((x_33605 Int) (x_33606 Int))
	(=> (diseqInt x_33605 x_33606) (diseqInt (succ_74 x_33605) (succ_74 x_33606)))))
(declare-datatypes ((list_142 0)) (((nil_159) (cons_142 (head_284 Int) (tail_284 list_142)))))
(declare-fun diseqlist_142 (list_142 list_142) Bool)
(declare-fun head_285 (Int list_142) Bool)
(declare-fun tail_285 (list_142 list_142) Bool)
(declare-fun isnil_159 (list_142) Bool)
(declare-fun iscons_142 (list_142) Bool)
(assert (forall ((x_33608 Int) (x_33609 list_142))
	(head_285 x_33608 (cons_142 x_33608 x_33609))))
(assert (forall ((x_33608 Int) (x_33609 list_142))
	(tail_285 x_33609 (cons_142 x_33608 x_33609))))
(assert (isnil_159 nil_159))
(assert (forall ((x_33611 Int) (x_33612 list_142))
	(iscons_142 (cons_142 x_33611 x_33612))))
(assert (forall ((x_33613 Int) (x_33614 list_142))
	(diseqlist_142 nil_159 (cons_142 x_33613 x_33614))))
(assert (forall ((x_33615 Int) (x_33616 list_142))
	(diseqlist_142 (cons_142 x_33615 x_33616) nil_159)))
(assert (forall ((x_33617 Int) (x_33618 list_142) (x_33619 Int) (x_33620 list_142))
	(=> (diseqInt x_33617 x_33619) (diseqlist_142 (cons_142 x_33617 x_33618) (cons_142 x_33619 x_33620)))))
(assert (forall ((x_33617 Int) (x_33618 list_142) (x_33619 Int) (x_33620 list_142))
	(=> (diseqlist_142 x_33618 x_33620) (diseqlist_142 (cons_142 x_33617 x_33618) (cons_142 x_33619 x_33620)))))
(declare-datatypes ((pair_62 0)) (((pair_63 (projpair_124 list_142) (projpair_125 list_142)))))
(declare-fun diseqpair_31 (pair_62 pair_62) Bool)
(declare-fun projpair_126 (list_142 pair_62) Bool)
(declare-fun projpair_127 (list_142 pair_62) Bool)
(declare-fun ispair_31 (pair_62) Bool)
(assert (forall ((x_33621 list_142) (x_33622 list_142))
	(projpair_126 x_33621 (pair_63 x_33621 x_33622))))
(assert (forall ((x_33621 list_142) (x_33622 list_142))
	(projpair_127 x_33622 (pair_63 x_33621 x_33622))))
(assert (forall ((x_33624 list_142) (x_33625 list_142))
	(ispair_31 (pair_63 x_33624 x_33625))))
(assert (forall ((x_33626 list_142) (x_33627 list_142) (x_33628 list_142) (x_33629 list_142))
	(=> (diseqlist_142 x_33626 x_33628) (diseqpair_31 (pair_63 x_33626 x_33627) (pair_63 x_33628 x_33629)))))
(assert (forall ((x_33626 list_142) (x_33627 list_142) (x_33628 list_142) (x_33629 list_142))
	(=> (diseqlist_142 x_33627 x_33629) (diseqpair_31 (pair_63 x_33626 x_33627) (pair_63 x_33628 x_33629)))))
(declare-fun take_31 (list_142 Int list_142) Bool)
(assert (forall ((x_33506 list_142) (z_1172 Int) (xs_380 list_142) (z_1171 Int))
	(=> (take_31 x_33506 z_1171 xs_380) (take_31 (cons_142 z_1172 x_33506) (succ_74 z_1171) (cons_142 z_1172 xs_380)))))
(assert (forall ((z_1171 Int))
	(take_31 nil_159 (succ_74 z_1171) nil_159)))
(assert (forall ((y_1257 list_142))
	(take_31 nil_159 zero_76 y_1257)))
(declare-fun plus_69 (Int Int Int) Bool)
(assert (forall ((x_33510 Int) (z_1173 Int) (y_1258 Int))
	(=> (plus_69 x_33510 z_1173 y_1258) (plus_69 (succ_74 x_33510) (succ_74 z_1173) y_1258))))
(assert (forall ((x_33511 Int))
	(plus_69 x_33511 zero_76 x_33511)))
(declare-fun minus_212 (Int Int Int) Bool)
(assert (forall ((x_33512 Int) (y_1260 Int) (z_1174 Int))
	(=> (minus_212 x_33512 z_1174 y_1260) (minus_212 x_33512 (succ_74 z_1174) (succ_74 y_1260)))))
(assert (forall ((z_1174 Int))
	(minus_212 zero_76 (succ_74 z_1174) zero_76)))
(assert (forall ((y_1259 Int))
	(minus_212 zero_76 zero_76 y_1259)))
(declare-fun third_5 (Int Int) Bool)
(assert (third_5 zero_76 (succ_74 (succ_74 zero_76))))
(assert (=> (diseqInt (succ_74 zero_76) (succ_74 (succ_74 zero_76))) (third_5 zero_76 (succ_74 zero_76))))
(assert (third_5 zero_76 (succ_74 (succ_74 zero_76))))
(assert (forall ((x_33519 Int) (x_33520 Int) (x_33521 Int) (y_1261 Int))
	(=> (and (diseqInt (succ_74 y_1261) (succ_74 (succ_74 zero_76))) (diseqInt (succ_74 y_1261) (succ_74 zero_76)) (minus_212 x_33520 (succ_74 y_1261) (succ_74 (succ_74 (succ_74 zero_76)))) (third_5 x_33521 x_33520) (plus_69 x_33519 (succ_74 zero_76) x_33521)) (third_5 x_33519 (succ_74 y_1261)))))
(assert (third_5 zero_76 (succ_74 (succ_74 zero_76))))
(assert (=> (diseqInt (succ_74 zero_76) (succ_74 (succ_74 zero_76))) (third_5 zero_76 (succ_74 zero_76))))
(assert (third_5 zero_76 (succ_74 (succ_74 zero_76))))
(assert (=> (and (diseqInt zero_76 (succ_74 (succ_74 zero_76))) (diseqInt zero_76 (succ_74 zero_76))) (third_5 zero_76 zero_76)))
(declare-fun twoThirds_2 (Int Int) Bool)
(assert (twoThirds_2 (succ_74 zero_76) (succ_74 (succ_74 zero_76))))
(assert (=> (diseqInt (succ_74 zero_76) (succ_74 (succ_74 zero_76))) (twoThirds_2 (succ_74 zero_76) (succ_74 zero_76))))
(assert (twoThirds_2 (succ_74 zero_76) (succ_74 (succ_74 zero_76))))
(assert (forall ((x_33530 Int) (x_33531 Int) (x_33532 Int) (y_1262 Int))
	(=> (and (diseqInt (succ_74 y_1262) (succ_74 (succ_74 zero_76))) (diseqInt (succ_74 y_1262) (succ_74 zero_76)) (minus_212 x_33531 (succ_74 y_1262) (succ_74 (succ_74 (succ_74 zero_76)))) (twoThirds_2 x_33532 x_33531) (plus_69 x_33530 (succ_74 (succ_74 zero_76)) x_33532)) (twoThirds_2 x_33530 (succ_74 y_1262)))))
(assert (twoThirds_2 (succ_74 zero_76) (succ_74 (succ_74 zero_76))))
(assert (=> (diseqInt (succ_74 zero_76) (succ_74 (succ_74 zero_76))) (twoThirds_2 (succ_74 zero_76) (succ_74 zero_76))))
(assert (twoThirds_2 (succ_74 zero_76) (succ_74 (succ_74 zero_76))))
(assert (=> (and (diseqInt zero_76 (succ_74 (succ_74 zero_76))) (diseqInt zero_76 (succ_74 zero_76))) (twoThirds_2 zero_76 zero_76)))
(declare-fun leq_28 (Bool_204 Int Int) Bool)
(assert (forall ((x_33538 Bool_204) (x_33487 Int) (z_1175 Int))
	(=> (leq_28 x_33538 z_1175 x_33487) (leq_28 x_33538 (succ_74 z_1175) (succ_74 x_33487)))))
(assert (forall ((z_1175 Int))
	(leq_28 false_204 (succ_74 z_1175) zero_76)))
(assert (forall ((y_1263 Int))
	(leq_28 true_204 zero_76 y_1263)))
(declare-fun ordered_9 (Bool_204 list_142) Bool)
(assert (forall ((x_33542 Bool_204) (x_33543 Bool_204) (x_33544 Bool_204) (y_1265 Int) (xs_381 list_142) (y_1264 Int))
	(=> (and (leq_28 x_33543 y_1264 y_1265) (ordered_9 x_33544 (cons_142 y_1265 xs_381)) (and_204 x_33542 x_33543 x_33544)) (ordered_9 x_33542 (cons_142 y_1264 (cons_142 y_1265 xs_381))))))
(assert (forall ((y_1264 Int))
	(ordered_9 true_204 (cons_142 y_1264 nil_159))))
(assert (ordered_9 true_204 nil_159))
(declare-fun sort_22 (list_142 Int Int) Bool)
(assert (forall ((x_33489 Int) (y_1266 Int))
	(=> (leq_28 true_204 x_33489 y_1266) (sort_22 (cons_142 x_33489 (cons_142 y_1266 nil_159)) x_33489 y_1266))))
(assert (forall ((x_33489 Int) (y_1266 Int))
	(=> (leq_28 false_204 x_33489 y_1266) (sort_22 (cons_142 y_1266 (cons_142 x_33489 nil_159)) x_33489 y_1266))))
(declare-fun length_19 (Int list_142) Bool)
(assert (forall ((x_33551 Int) (x_33552 Int) (y_1267 Int) (l_21 list_142))
	(=> (and (length_19 x_33552 l_21) (plus_69 x_33551 (succ_74 zero_76) x_33552)) (length_19 x_33551 (cons_142 y_1267 l_21)))))
(assert (length_19 zero_76 nil_159))
(declare-fun drop_33 (list_142 Int list_142) Bool)
(assert (forall ((x_33555 list_142) (z_1178 Int) (xs_382 list_142) (z_1177 Int))
	(=> (drop_33 x_33555 z_1177 xs_382) (drop_33 x_33555 (succ_74 z_1177) (cons_142 z_1178 xs_382)))))
(assert (forall ((z_1177 Int))
	(drop_33 nil_159 (succ_74 z_1177) nil_159)))
(assert (forall ((x_33558 list_142))
	(drop_33 x_33558 zero_76 x_33558)))
(declare-fun splitAt_14 (pair_62 Int list_142) Bool)
(assert (forall ((x_33560 list_142) (x_33561 list_142) (x_33492 Int) (y_1269 list_142))
	(=> (and (take_31 x_33560 x_33492 y_1269) (drop_33 x_33561 x_33492 y_1269)) (splitAt_14 (pair_63 x_33560 x_33561) x_33492 y_1269))))
(declare-fun x_33493 (list_142 list_142 list_142) Bool)
(assert (forall ((x_33563 list_142) (z_1179 Int) (xs_383 list_142) (y_1270 list_142))
	(=> (x_33493 x_33563 xs_383 y_1270) (x_33493 (cons_142 z_1179 x_33563) (cons_142 z_1179 xs_383) y_1270))))
(assert (forall ((x_33564 list_142))
	(x_33493 x_33564 nil_159 x_33564)))
(declare-fun nstoogesort_15 (list_142 list_142) Bool)
(declare-fun nstoogesort_16 (list_142 list_142) Bool)
(declare-fun nstoogesort_17 (list_142 list_142) Bool)
(assert (forall ((x_33568 list_142) (x_33569 list_142) (x_33565 Int) (x_33566 Int) (ys_125 list_142) (zs_41 list_142) (x_33495 list_142))
	(=> (and (nstoogesort_16 x_33569 ys_125) (x_33493 x_33568 x_33569 zs_41) (length_19 x_33565 x_33495) (twoThirds_2 x_33566 x_33565) (splitAt_14 (pair_63 ys_125 zs_41) x_33566 x_33495)) (nstoogesort_15 x_33568 x_33495))))
(assert (forall ((x_33571 list_142) (x_33572 list_142) (x_33573 list_142) (x_33498 Int) (x_33499 list_142) (y_1272 Int) (y_1271 Int))
	(=> (and (nstoogesort_15 x_33572 (cons_142 y_1271 (cons_142 y_1272 (cons_142 x_33498 x_33499)))) (nstoogesort_17 x_33573 x_33572) (nstoogesort_15 x_33571 x_33573)) (nstoogesort_16 x_33571 (cons_142 y_1271 (cons_142 y_1272 (cons_142 x_33498 x_33499)))))))
(assert (forall ((x_33575 list_142) (y_1272 Int) (y_1271 Int))
	(=> (sort_22 x_33575 y_1271 y_1272) (nstoogesort_16 x_33575 (cons_142 y_1271 (cons_142 y_1272 nil_159))))))
(assert (forall ((y_1271 Int))
	(nstoogesort_16 (cons_142 y_1271 nil_159) (cons_142 y_1271 nil_159))))
(assert (nstoogesort_16 nil_159 nil_159))
(assert (forall ((x_33582 list_142) (x_33583 list_142) (x_33579 Int) (x_33580 Int) (ys_126 list_142) (zs_42 list_142) (x_33500 list_142))
	(=> (and (nstoogesort_16 x_33583 zs_42) (x_33493 x_33582 ys_126 x_33583) (length_19 x_33579 x_33500) (third_5 x_33580 x_33579) (splitAt_14 (pair_63 ys_126 zs_42) x_33580 x_33500)) (nstoogesort_17 x_33582 x_33500))))
(assert (forall ((x_33585 Int) (x_33586 Int) (x_33587 Int) (x_33588 Int) (x_33501 Int) (y_1273 Int) (z_1181 Int))
	(=> (and true (diseqInt x_33586 x_33588) (plus_69 x_33585 y_1273 z_1181) (plus_69 x_33586 x_33501 x_33585) (plus_69 x_33587 x_33501 y_1273) (plus_69 x_33588 x_33587 z_1181)) false)))
(assert (forall ((x_33589 Int) (x_33590 Int) (x_33502 Int) (y_1274 Int))
	(=> (and true (diseqInt x_33589 x_33590) (plus_69 x_33589 x_33502 y_1274) (plus_69 x_33590 y_1274 x_33502)) false)))
(assert (forall ((x_33591 Int) (x_33503 Int))
	(=> (and true (diseqInt x_33591 x_33503) (plus_69 x_33591 x_33503 zero_76)) false)))
(assert (forall ((x_33592 Int) (x_33504 Int))
	(=> (and true (diseqInt x_33592 x_33504) (plus_69 x_33592 zero_76 x_33504)) false)))
(assert (forall ((x_33593 list_142) (xs_384 list_142))
	(=> (and true (nstoogesort_16 x_33593 xs_384) (ordered_9 false_204 x_33593)) false)))
(check-sat)
